p cnf 427 1218
13 0
-14 -8 0
-14 8 -7 0
-14 -7 0
-15 -9 0
-15 9 14 0
-15 14 0
-16 7 0
-17 -8 -7 0
-17 8 16 0
-17 -7 16 0
-18 -9 14 0
-18 9 17 0
-18 14 17 0
-19 -10 15 0
-19 10 18 0
-19 15 18 0
-20 -8 16 0
-20 8 0
-20 16 0
-21 -9 17 0
-21 9 20 0
-21 17 20 0
-22 -10 18 0
-22 10 21 0
-22 18 21 0
-23 -11 19 0
-23 11 22 0
-23 19 22 0
-24 -9 20 0
-24 9 0
-24 20 0
-25 -10 21 0
-25 10 24 0
-25 21 24 0
-26 -11 22 0
-26 11 25 0
-26 22 25 0
-27 -12 23 0
-27 12 26 0
-27 23 26 0
27 0
28 0
-29 -8 0
-29 8 -7 0
-29 -7 0
-30 -9 0
-30 9 29 0
-30 29 0
-31 7 0
-32 -8 0
-32 8 31 0
-32 31 0
-33 -9 32 0
-33 9 0
-33 32 0
-34 -10 30 0
-34 10 33 0
-34 30 33 0
-35 -11 0
-35 11 34 0
-35 34 0
-36 -9 0
-36 9 32 0
-36 32 0
-37 -8 -7 0
-37 8 0
-37 -7 0
-38 -9 37 0
-38 9 0
-38 37 0
-39 -10 36 0
-39 10 38 0
-39 36 38 0
-40 -8 31 0
-40 8 0
-40 31 0
-41 -9 40 0
-41 9 0
-41 40 0
-42 -10 41 0
-42 10 0
-42 41 0
-43 -11 39 0
-43 11 42 0
-43 39 42 0
-44 -12 35 0
-44 12 43 0
-44 35 43 0
44 0
7 45 0
-45 -7 0
8 46 0
-46 -8 0
9 47 0
-47 -9 0
10 48 0
-48 -10 0
11 49 0
-49 -11 0
12 50 0
-50 -12 0
-7 51 0
-51 7 0
-8 52 0
-52 8 0
-9 53 0
-53 9 0
-10 54 0
-54 10 0
-11 55 0
-55 11 0
-12 56 0
-56 12 0
57 0
-58 46 0
-59 -51 58 0
-59 51 0
-59 58 0
-60 -52 0
-60 52 59 0
-60 59 0
-61 -47 0
-61 47 60 0
-61 60 0
-62 -53 0
-62 53 61 0
-62 61 0
-63 -53 61 0
-63 53 0
-63 61 0
-64 -48 62 0
-64 48 63 0
-64 62 63 0
-65 -49 0
-65 49 64 0
-65 64 0
-66 -54 0
-66 54 65 0
-66 65 0
-67 -50 0
-67 50 66 0
-67 66 0
-68 -51 0
-68 51 -46 0
-68 -46 0
-69 -52 0
-69 52 68 0
-69 68 0
-70 -52 68 0
-70 52 0
-70 68 0
-71 -47 69 0
-71 47 70 0
-71 69 70 0
-72 -53 0
-72 53 71 0
-72 71 0
-73 -48 0
-73 48 72 0
-73 72 0
-74 -48 63 0
-74 48 0
-74 63 0
-75 -49 73 0
-75 49 74 0
-75 73 74 0
-76 -49 74 0
-76 49 0
-76 74 0
-77 -54 75 0
-77 54 76 0
-77 75 76 0
-78 -50 66 0
-78 50 77 0
-78 66 77 0
-79 -55 67 0
-79 55 78 0
-79 67 78 0
-80 -52 59 0
-80 52 0
-80 59 0
-81 -47 60 0
-81 47 80 0
-81 60 80 0
-82 -53 0
-82 53 81 0
-82 81 0
-83 -48 0
-83 48 82 0
-83 82 0
-84 -49 0
-84 49 83 0
-84 83 0
-85 -53 71 0
-85 53 0
-85 71 0
-86 -48 85 0
-86 48 0
-86 85 0
-87 -49 83 0
-87 49 86 0
-87 83 86 0
-88 -54 84 0
-88 54 87 0
-88 84 87 0
-89 -53 81 0
-89 53 0
-89 81 0
-90 -48 82 0
-90 48 89 0
-90 82 89 0
-91 -49 90 0
-91 49 0
-91 90 0
-92 -54 91 0
-92 54 0
-92 91 0
-93 -50 88 0
-93 50 92 0
-93 88 92 0
-94 -50 92 0
-94 50 0
-94 92 0
-95 -55 93 0
-95 55 94 0
-95 93 94 0
-96 -56 79 0
-96 56 95 0
-96 79 95 0
96 0
97 0
-98 -2 0
-98 2 -1 0
-98 -1 0
-99 -3 0
-99 3 98 0
-99 98 0
-100 1 0
-101 -2 -1 0
-101 2 100 0
-101 -1 100 0
-102 -3 98 0
-102 3 101 0
-102 98 101 0
-103 -4 99 0
-103 4 102 0
-103 99 102 0
-104 -2 100 0
-104 2 0
-104 100 0
-105 -3 101 0
-105 3 104 0
-105 101 104 0
-106 -4 102 0
-106 4 105 0
-106 102 105 0
-107 -5 103 0
-107 5 106 0
-107 103 106 0
-108 -3 104 0
-108 3 0
-108 104 0
-109 -4 105 0
-109 4 108 0
-109 105 108 0
-110 -5 106 0
-110 5 109 0
-110 106 109 0
-111 -6 107 0
-111 6 110 0
-111 107 110 0
111 0
1 7 112 0
-112 -1 0
-112 -7 0
2 8 113 0
-113 -2 0
-113 -8 0
3 9 114 0
-114 -3 0
-114 -9 0
4 10 115 0
-115 -4 0
-115 -10 0
5 11 116 0
-116 -5 0
-116 -11 0
6 12 117 0
-117 -6 0
-117 -12 0
1 -7 118 0
-118 -1 0
-118 7 0
2 -8 119 0
-119 -2 0
-119 8 0
3 -9 120 0
-120 -3 0
-120 9 0
4 -10 121 0
-121 -4 0
-121 10 0
5 -11 122 0
-122 -5 0
-122 11 0
6 -12 123 0
-123 -6 0
-123 12 0
-1 7 124 0
-124 1 0
-124 -7 0
-2 8 125 0
-125 2 0
-125 -8 0
-3 9 126 0
-126 3 0
-126 -9 0
-4 10 127 0
-127 4 0
-127 -10 0
-5 11 128 0
-128 5 0
-128 -11 0
-6 12 129 0
-129 6 0
-129 -12 0
-1 -7 130 0
-130 1 0
-130 7 0
-2 -8 131 0
-131 2 0
-131 8 0
-3 -9 132 0
-132 3 0
-132 9 0
-4 -10 133 0
-133 4 0
-133 10 0
-5 -11 134 0
-134 5 0
-134 11 0
-6 -12 135 0
-135 6 0
-135 12 0
136 0
-137 -119 0
-137 119 -124 0
-137 -124 0
-138 -113 0
-138 113 137 0
-138 137 0
-139 -131 0
-139 131 138 0
-139 138 0
-140 -125 0
-140 125 139 0
-140 139 0
-141 -120 0
-141 120 140 0
-141 140 0
-142 -114 0
-142 114 141 0
-142 141 0
-143 124 0
-144 -119 143 0
-144 119 0
-144 143 0
-145 -113 137 0
-145 113 144 0
-145 137 144 0
-146 -131 138 0
-146 131 145 0
-146 138 145 0
-147 -125 0
-147 125 146 0
-147 146 0
-148 -113 144 0
-148 113 0
-148 144 0
-149 -131 148 0
-149 131 0
-149 148 0
-150 -125 146 0
-150 125 149 0
-150 146 149 0
-151 -120 147 0
-151 120 150 0
-151 147 150 0
-152 -114 141 0
-152 114 151 0
-152 141 151 0
-153 -132 142 0
-153 132 152 0
-153 142 152 0
-154 -121 0
-154 121 153 0
-154 153 0
-155 -126 0
-155 126 154 0
-155 154 0
-156 -133 0
-156 133 155 0
-156 155 0
-157 -115 0
-157 115 156 0
-157 156 0
-158 -127 0
-158 127 157 0
-158 157 0
-159 -122 0
-159 122 158 0
-159 158 0
-160 -134 0
-160 134 159 0
-160 159 0
-161 -116 0
-161 116 160 0
-161 160 0
-162 -123 0
-162 123 161 0
-162 161 0
-163 -128 0
-163 128 162 0
-163 162 0
-164 -117 0
-164 117 163 0
-164 163 0
-165 -120 0
-165 120 147 0
-165 147 0
-166 -114 0
-166 114 165 0
-166 165 0
-167 -132 0
-167 132 166 0
-167 166 0
-168 -121 0
-168 121 167 0
-168 167 0
-169 -119 -124 0
-169 119 143 0
-169 -124 143 0
-170 -113 0
-170 113 169 0
-170 169 0
-171 -131 0
-171 131 170 0
-171 170 0
-172 -125 0
-172 125 171 0
-172 171 0
-173 -113 169 0
-173 113 0
-173 169 0
-174 -131 173 0
-174 131 0
-174 173 0
-175 -125 171 0
-175 125 174 0
-175 171 174 0
-176 -120 172 0
-176 120 175 0
-176 172 175 0
-177 -114 0
-177 114 176 0
-177 176 0
-178 -131 170 0
-178 131 173 0
-178 170 173 0
-179 -125 178 0
-179 125 0
-179 178 0
-180 -120 179 0
-180 120 0
-180 179 0
-181 -114 176 0
-181 114 180 0
-181 176 180 0
-182 -132 177 0
-182 132 181 0
-182 177 181 0
-183 -121 167 0
-183 121 182 0
-183 167 182 0
-184 -126 168 0
-184 126 183 0
-184 168 183 0
-185 -133 0
-185 133 184 0
-185 184 0
-186 -115 0
-186 115 185 0
-186 185 0
-187 -127 0
-187 127 186 0
-187 186 0
-188 -122 0
-188 122 187 0
-188 187 0
-189 -134 0
-189 134 188 0
-189 188 0
-190 -116 0
-190 116 189 0
-190 189 0
-191 -123 0
-191 123 190 0
-191 190 0
-192 -132 0
-192 132 142 0
-192 142 0
-193 -121 0
-193 121 192 0
-193 192 0
-194 -126 0
-194 126 193 0
-194 193 0
-195 -133 0
-195 133 194 0
-195 194 0
-196 -115 0
-196 115 195 0
-196 195 0
-197 -127 0
-197 127 196 0
-197 196 0
-198 -131 145 0
-198 131 148 0
-198 145 148 0
-199 -125 139 0
-199 125 198 0
-199 139 198 0
-200 -120 140 0
-200 120 199 0
-200 140 199 0
-201 -114 0
-201 114 200 0
-201 200 0
-202 -132 0
-202 132 201 0
-202 201 0
-203 -121 0
-203 121 202 0
-203 202 0
-204 -126 0
-204 126 203 0
-204 203 0
-205 -133 0
-205 133 204 0
-205 204 0
-206 -120 0
-206 120 172 0
-206 172 0
-207 -114 0
-207 114 206 0
-207 206 0
-208 -125 0
-208 125 178 0
-208 178 0
-209 -120 208 0
-209 120 179 0
-209 208 179 0
-210 -114 206 0
-210 114 209 0
-210 206 209 0
-211 -132 207 0
-211 132 210 0
-211 207 210 0
-212 -121 0
-212 121 211 0
-212 211 0
-213 -125 149 0
-213 125 0
-213 149 0
-214 -120 150 0
-214 120 213 0
-214 150 213 0
-215 -114 200 0
-215 114 214 0
-215 200 214 0
-216 -114 214 0
-216 114 0
-216 214 0
-217 -132 215 0
-217 132 216 0
-217 215 216 0
-218 -121 211 0
-218 121 217 0
-218 211 217 0
-219 -126 212 0
-219 126 218 0
-219 212 218 0
-220 -133 204 0
-220 133 219 0
-220 204 219 0
-221 -115 205 0
-221 115 220 0
-221 205 220 0
-222 -127 196 0
-222 127 221 0
-222 196 221 0
-223 -122 197 0
-223 122 222 0
-223 197 222 0
-224 -134 0
-224 134 223 0
-224 223 0
-225 -115 0
-225 115 205 0
-225 205 0
-226 -125 198 0
-226 125 0
-226 198 0
-227 -120 199 0
-227 120 226 0
-227 199 226 0
-228 -114 165 0
-228 114 227 0
-228 165 227 0
-229 -132 166 0
-229 132 228 0
-229 166 228 0
-230 -121 0
-230 121 229 0
-230 229 0
-231 -126 0
-231 126 230 0
-231 230 0
-232 -133 0
-232 133 231 0
-232 231 0
-233 -120 213 0
-233 120 0
-233 213 0
-234 -114 227 0
-234 114 233 0
-234 227 233 0
-235 -114 233 0
-235 114 0
-235 233 0
-236 -132 234 0
-236 132 235 0
-236 234 235 0
-237 -121 182 0
-237 121 236 0
-237 182 236 0
-238 -126 183 0
-238 126 237 0
-238 183 237 0
-239 -133 231 0
-239 133 238 0
-239 231 238 0
-240 -115 232 0
-240 115 239 0
-240 232 239 0
-241 -127 225 0
-241 127 240 0
-241 225 240 0
-242 -120 0
-242 120 208 0
-242 208 0
-243 -114 0
-243 114 242 0
-243 242 0
-244 -132 0
-244 132 243 0
-244 243 0
-245 -121 0
-245 121 244 0
-245 244 0
-246 -120 226 0
-246 120 0
-246 226 0
-247 -114 151 0
-247 114 246 0
-247 151 246 0
-248 -132 152 0
-248 132 247 0
-248 152 247 0
-249 -121 244 0
-249 121 248 0
-249 244 248 0
-250 -126 245 0
-250 126 249 0
-250 245 249 0
-251 -125 174 0
-251 125 0
-251 174 0
-252 -120 175 0
-252 120 251 0
-252 175 251 0
-253 -114 242 0
-253 114 252 0
-253 242 252 0
-254 -114 252 0
-254 114 0
-254 252 0
-255 -132 253 0
-255 132 254 0
-255 253 254 0
-256 -121 153 0
-256 121 255 0
-256 153 255 0
-257 -114 246 0
-257 114 0
-257 246 0
-258 -132 257 0
-258 132 0
-258 257 0
-259 -121 255 0
-259 121 258 0
-259 255 258 0
-260 -126 256 0
-260 126 259 0
-260 256 259 0
-261 -133 250 0
-261 133 260 0
-261 250 260 0
-262 -132 247 0
-262 132 257 0
-262 247 257 0
-263 -121 262 0
-263 121 0
-263 262 0
-264 -126 263 0
-264 126 0
-264 263 0
-265 -133 260 0
-265 133 264 0
-265 260 264 0
-266 -115 261 0
-266 115 265 0
-266 261 265 0
-267 -127 240 0
-267 127 266 0
-267 240 266 0
-268 -122 241 0
-268 122 267 0
-268 241 267 0
-269 -134 223 0
-269 134 268 0
-269 223 268 0
-270 -116 224 0
-270 116 269 0
-270 224 269 0
-271 -123 190 0
-271 123 270 0
-271 190 270 0
-272 -128 191 0
-272 128 271 0
-272 191 271 0
-273 -117 163 0
-273 117 272 0
-273 163 272 0
-274 -135 164 0
-274 135 273 0
-274 164 273 0
-275 -133 194 0
-275 133 250 0
-275 194 250 0
-276 -115 195 0
-276 115 275 0
-276 195 275 0
-277 -127 0
-277 127 276 0
-277 276 0
-278 -122 0
-278 122 277 0
-278 277 0
-279 -134 0
-279 134 278 0
-279 278 0
-280 -116 0
-280 116 279 0
-280 279 0
-281 -123 0
-281 123 280 0
-281 280 0
-282 -128 0
-282 128 281 0
-282 281 0
-283 -132 0
-283 132 207 0
-283 207 0
-284 -121 0
-284 121 283 0
-284 283 0
-285 -126 0
-285 126 284 0
-285 284 0
-286 -133 0
-286 133 285 0
-286 285 0
-287 -115 0
-287 115 286 0
-287 286 0
-288 -127 0
-288 127 287 0
-288 287 0
-289 -132 0
-289 132 177 0
-289 177 0
-290 -121 0
-290 121 289 0
-290 289 0
-291 -126 0
-291 126 290 0
-291 290 0
-292 -133 0
-292 133 291 0
-292 291 0
-293 -114 180 0
-293 114 0
-293 180 0
-294 -132 181 0
-294 132 293 0
-294 181 293 0
-295 -121 229 0
-295 121 294 0
-295 229 294 0
-296 -126 230 0
-296 126 295 0
-296 230 295 0
-297 -133 291 0
-297 133 296 0
-297 291 296 0
-298 -115 292 0
-298 115 297 0
-298 292 297 0
-299 -127 287 0
-299 127 298 0
-299 287 298 0
-300 -122 288 0
-300 122 299 0
-300 288 299 0
-301 -134 0
-301 134 300 0
-301 300 0
-302 -116 0
-302 116 301 0
-302 301 0
-303 -123 0
-303 123 302 0
-303 302 0
-304 -126 0
-304 126 168 0
-304 168 0
-305 -133 0
-305 133 304 0
-305 304 0
-306 -115 0
-306 115 305 0
-306 305 0
-307 -127 0
-307 127 306 0
-307 306 0
-308 -122 0
-308 122 307 0
-308 307 0
-309 -132 201 0
-309 132 215 0
-309 201 215 0
-310 -121 283 0
-310 121 309 0
-310 283 309 0
-311 -126 284 0
-311 126 310 0
-311 284 310 0
-312 -133 0
-312 133 311 0
-312 311 0
-313 -120 251 0
-313 120 0
-313 251 0
-314 -114 209 0
-314 114 313 0
-314 209 313 0
-315 -132 210 0
-315 132 314 0
-315 210 314 0
-316 -121 202 0
-316 121 315 0
-316 202 315 0
-317 -132 216 0
-317 132 0
-317 216 0
-318 -121 315 0
-318 121 317 0
-318 315 317 0
-319 -126 316 0
-319 126 318 0
-319 316 318 0
-320 -133 311 0
-320 133 319 0
-320 311 319 0
-321 -115 312 0
-321 115 320 0
-321 312 320 0
-322 -127 157 0
-322 127 321 0
-322 157 321 0
-323 -122 158 0
-323 122 322 0
-323 158 322 0
-324 -134 308 0
-324 134 323 0
-324 308 323 0
-325 -115 0
-325 115 312 0
-325 312 0
-326 -132 228 0
-326 132 234 0
-326 228 234 0
-327 -121 289 0
-327 121 326 0
-327 289 326 0
-328 -126 290 0
-328 126 327 0
-328 290 327 0
-329 -133 304 0
-329 133 328 0
-329 304 328 0
-330 -132 235 0
-330 132 0
-330 235 0
-331 -121 294 0
-331 121 330 0
-331 294 330 0
-332 -126 295 0
-332 126 331 0
-332 295 331 0
-333 -133 328 0
-333 133 332 0
-333 328 332 0
-334 -115 329 0
-334 115 333 0
-334 329 333 0
-335 -127 325 0
-335 127 334 0
-335 325 334 0
-336 -132 243 0
-336 132 253 0
-336 243 253 0
-337 -121 192 0
-337 121 336 0
-337 192 336 0
-338 -121 336 0
-338 121 262 0
-338 336 262 0
-339 -126 337 0
-339 126 338 0
-339 337 338 0
-340 -132 254 0
-340 132 0
-340 254 0
-341 -121 248 0
-341 121 340 0
-341 248 340 0
-342 -121 340 0
-342 121 0
-342 340 0
-343 -126 341 0
-343 126 342 0
-343 341 342 0
-344 -133 339 0
-344 133 343 0
-344 339 343 0
-345 -121 258 0
-345 121 0
-345 258 0
-346 -126 345 0
-346 126 0
-346 345 0
-347 -133 343 0
-347 133 346 0
-347 343 346 0
-348 -115 344 0
-348 115 347 0
-348 344 347 0
-349 -127 334 0
-349 127 348 0
-349 334 348 0
-350 -122 335 0
-350 122 349 0
-350 335 349 0
-351 -134 323 0
-351 134 350 0
-351 323 350 0
-352 -116 324 0
-352 116 351 0
-352 324 351 0
-353 -123 302 0
-353 123 352 0
-353 302 352 0
-354 -128 303 0
-354 128 353 0
-354 303 353 0
-355 -117 282 0
-355 117 354 0
-355 282 354 0
-356 -134 0
-356 134 308 0
-356 308 0
-357 -116 356 0
-357 116 324 0
-357 356 324 0
-358 -126 0
-358 126 212 0
-358 212 0
-359 -133 0
-359 133 358 0
-359 358 0
-360 -115 0
-360 115 359 0
-360 359 0
-361 -127 0
-361 127 360 0
-361 360 0
-362 -122 0
-362 122 361 0
-362 361 0
-363 -126 0
-363 126 245 0
-363 245 0
-364 -126 154 0
-364 126 256 0
-364 154 256 0
-365 -133 363 0
-365 133 364 0
-365 363 364 0
-366 -126 338 0
-366 126 263 0
-366 338 263 0
-367 -133 364 0
-367 133 366 0
-367 364 366 0
-368 -115 365 0
-368 115 367 0
-368 365 367 0
-369 -127 186 0
-369 127 368 0
-369 186 368 0
-370 -122 187 0
-370 122 369 0
-370 187 369 0
-371 -134 362 0
-371 134 370 0
-371 362 370 0
-372 -133 0
-372 133 363 0
-372 363 0
-373 -115 372 0
-373 115 365 0
-373 372 365 0
-374 -114 313 0
-374 114 0
-374 313 0
-375 -132 314 0
-375 132 374 0
-375 314 374 0
-376 -121 309 0
-376 121 375 0
-376 309 375 0
-377 -126 310 0
-377 126 376 0
-377 310 376 0
-378 -133 358 0
-378 133 377 0
-378 358 377 0
-379 -121 317 0
-379 121 0
-379 317 0
-380 -126 318 0
-380 126 379 0
-380 318 379 0
-381 -133 377 0
-381 133 380 0
-381 377 380 0
-382 -115 378 0
-382 115 381 0
-382 378 381 0
-383 -127 373 0
-383 127 382 0
-383 373 382 0
-384 -132 293 0
-384 132 0
-384 293 0
-385 -121 326 0
-385 121 384 0
-385 326 384 0
-386 -126 327 0
-386 126 385 0
-386 327 385 0
-387 -121 330 0
-387 121 0
-387 330 0
-388 -126 331 0
-388 126 387 0
-388 331 387 0
-389 -133 386 0
-389 133 388 0
-389 386 388 0
-390 -133 388 0
-390 133 0
-390 388 0
-391 -115 389 0
-391 115 390 0
-391 389 390 0
-392 -127 382 0
-392 127 391 0
-392 382 391 0
-393 -122 383 0
-393 122 392 0
-393 383 392 0
-394 -134 370 0
-394 134 393 0
-394 370 393 0
-395 -116 371 0
-395 116 394 0
-395 371 394 0
-396 -123 357 0
-396 123 395 0
-396 357 395 0
-397 -121 384 0
-397 121 0
-397 384 0
-398 -126 385 0
-398 126 397 0
-398 385 397 0
-399 -133 238 0
-399 133 398 0
-399 238 398 0
-400 -115 239 0
-400 115 399 0
-400 239 399 0
-401 -127 221 0
-401 127 400 0
-401 221 400 0
-402 -122 222 0
-402 122 401 0
-402 222 401 0
-403 -121 375 0
-403 121 0
-403 375 0
-404 -126 376 0
-404 126 403 0
-404 376 403 0
-405 -126 379 0
-405 126 0
-405 379 0
-406 -133 404 0
-406 133 405 0
-406 404 405 0
-407 -133 405 0
-407 133 0
-407 405 0
-408 -115 406 0
-408 115 407 0
-408 406 407 0
-409 -127 266 0
-409 127 408 0
-409 266 408 0
-410 -122 267 0
-410 122 409 0
-410 267 409 0
-411 -134 402 0
-411 134 410 0
-411 402 410 0
-412 -133 219 0
-412 133 404 0
-412 219 404 0
-413 -115 412 0
-413 115 406 0
-413 412 406 0
-414 -126 387 0
-414 126 0
-414 387 0
-415 -133 398 0
-415 133 414 0
-415 398 414 0
-416 -133 414 0
-416 133 0
-416 414 0
-417 -115 415 0
-417 115 416 0
-417 415 416 0
-418 -127 413 0
-418 127 417 0
-418 413 417 0
-419 -127 417 0
-419 127 0
-419 417 0
-420 -122 418 0
-420 122 419 0
-420 418 419 0
-421 -134 410 0
-421 134 420 0
-421 410 420 0
-422 -116 411 0
-422 116 421 0
-422 411 421 0
-423 -123 395 0
-423 123 422 0
-423 395 422 0
-424 -128 396 0
-424 128 423 0
-424 396 423 0
-425 -117 354 0
-425 117 424 0
-425 354 424 0
-426 -135 355 0
-426 135 425 0
-426 355 425 0
-427 -129 274 0
-427 129 426 0
-427 274 426 0
427 0
